(set-info :status sat)
(declare-const symbol_9 (_ BitVec 32))
(declare-const symbol_11 (_ BitVec 32))
(declare-const symbol_3 (_ BitVec 32))
(declare-const symbol_1 (_ BitVec 32))
(declare-const symbol_7 (_ BitVec 32))
(declare-const symbol_5 (_ BitVec 32))
(assert (= symbol_5 symbol_11))
(assert (not (= symbol_1 symbol_11)))
(assert (not (= symbol_7 symbol_9)))
(assert (not (= symbol_5 symbol_9)))
(assert (not (= symbol_1 symbol_9)))
(assert (not (= symbol_5 symbol_7)))
(assert (not (= symbol_1 symbol_7)))
(assert (not (= symbol_1 symbol_5)))
(assert (= symbol_1 symbol_3))
(check-sat)